
Gurobi 12.0.2 (win64) logging started Fri Jun  6 10:09:46 2025

Set parameter LogFile to value "C:\Ioana\_uni\honours\slp\algorithm\Main_files\results\others\prox_tubules_new\Task_004_Sample004_irr_gurobi.log"
Gurobi Optimizer version 12.0.2 build v12.0.2rc0 (win64 - Windows 11.0 (26100.2))

CPU model: Intel(R) Core(TM) Ultra 5 125H, instruction set [SSE2|AVX|AVX2]
Thread count: 14 physical cores, 18 logical processors, using up to 18 threads

Non-default parameters:
TimeLimit  2200

Optimize a model with 47658 rows, 34811 columns and 147858 nonzeros
Model fingerprint: 0x5ca30dec
Variable types: 17417 continuous, 17394 integer (17394 binary)
Coefficient statistics:
  Matrix range     [1e-04, 8e+04]
  Objective range  [1e-04, 3e+00]
  Bounds range     [1e+00, 1e+03]
  RHS range        [1e+00, 1e+00]
Presolve removed 31203 rows and 21846 columns
Presolve time: 0.34s
Presolved: 16455 rows, 12965 columns, 54693 nonzeros
Variable types: 6419 continuous, 6546 integer (6546 binary)

Root relaxation: objective 8.836304e-03, 2969 iterations, 0.21 seconds (0.40 work units)

    Nodes    |    Current Node    |     Objective Bounds      |     Work
 Expl Unexpl |  Obj  Depth IntInf | Incumbent    BestBd   Gap | It/Node Time

     0     0    0.00884    0   16          -    0.00884      -     -    0s
H    0     0                       6.1835631    0.00884   100%     -    0s
     0     0    1.84307    0   35    6.18356    1.84307  70.2%     -    0s
     0     0    3.93978    0   12    6.18356    3.93978  36.3%     -    1s
     0     0    3.93983    0   14    6.18356    3.93983  36.3%     -    1s
     0     0    5.32172    0    8    6.18356    5.32172  13.9%     -    1s
     0     0    5.32172    0    5    6.18356    5.32172  13.9%     -    1s
     0     0     cutoff    0         6.18356    6.18356  0.00%     -    1s

Cutting planes:
  Learned: 1
  Gomory: 3
  Cover: 2
  MIR: 9
  Flow cover: 15
  Flow path: 4
  Network: 1
  Relax-and-lift: 4

Explored 1 nodes (4740 simplex iterations) in 1.53 seconds (1.70 work units)
Thread count was 18 (of 18 available processors)

Solution count 1: 6.18356 

Optimal solution found (tolerance 1.00e-04)
Best objective 6.183563131456e+00, best bound 6.183563131456e+00, gap 0.0000%
